single_objective/SL-DABL/OP/problems/op/OPLib-master/instances/gen1/rat783-gen1-50.oplib
NAME : rat783
COMMENT : Rattled grid (Pulleyblank)
TYPE : OP
DIMENSION : 783
COST_LIMIT : 4403
EDGE_WEIGHT_TYPE : EUC_2D
NODE_COORD_SECTION
1 13 6
2 49 6
3 105 6
4 239 6
5 110 7
6 270 7
7 53 8
8 131 8
9 88 9
10 97 9
11 244 9
12 78 10
13 254 10
14 174 11
15 10 13
16 200 13
17 29 14
18 62 14
19 123 14
20 141 15
21 201 15
22 167 17
23 39 18
24 219 18
25 14 19
26 200 19
27 204 19
28 220 19
29 100 20
30 127 20
31 151 21
32 188 21
33 88 22
34 231 23
35 167 24
36 140 25
37 26 28
38 253 30
39 101 33
40 270 33
41 44 35
42 181 35
43 245 35
44 211 37
45 30 38
46 54 38
47 69 38
48 116 38
49 7 39
50 159 39
51 189 39
52 13 40
53 73 40
54 175 40
55 213 40
56 2 41
57 25 41
58 77 41
59 142 41
60 222 41
61 143 42
62 165 45
63 94 46
64 125 46
65 67 49
66 237 49
67 46 51
68 150 53
69 200 53
70 38 55
71 132 55
72 179 55
73 228 55
74 107 56
75 243 56
76 82 57
77 113 57
78 207 58
79 261 58
80 37 59
81 51 59
82 163 59
83 71 60
84 255 60
85 140 62
86 154 62
87 248 62
88 8 63
89 104 63
90 208 63
91 222 64
92 180 65
93 196 65
94 68 66
95 96 68
96 232 68
97 24 69
98 84 69
99 138 70
100 40 71
101 267 72
102 121 73
103 180 73
104 217 75
105 120 76
106 259 78
107 58 79
108 120 80
109 250 80
110 20 81
111 59 81
112 107 82
113 218 82
114 246 83
115 31 86
116 98 89
117 15 90
118 140 90
119 226 91
120 75 92
121 154 92
122 240 93
123 20 94
124 160 94
125 0 95
126 149 95
127 45 96
128 113 97
129 177 97
130 185 97
131 204 97
132 200 98
133 89 99
134 260 99
135 262 99
136 60 101
137 89 101
138 136 101
139 17 103
140 110 103
141 190 104
142 240 104
143 90 105
144 164 105
145 221 106
146 3 107
147 24 107
148 231 107
149 254 107
150 154 109
151 63 110
152 77 110
153 47 111
154 181 111
155 31 114
156 60 115
157 126 117
158 207 117
159 170 118
160 36 119
161 81 120
162 61 121
163 111 121
164 140 121
165 144 121
166 217 121
167 188 122
168 230 122
169 119 124
170 237 127
171 266 128
172 17 129
173 151 129
174 220 129
175 42 130
176 103 130
177 252 131
178 210 133
179 99 134
180 20 135
181 249 135
182 137 137
183 170 137
184 59 138
185 0 139
186 20 139
187 76 140
188 174 140
189 195 140
190 121 141
191 194 141
192 212 141
193 267 141
194 248 142
195 46 146
196 52 146
197 182 146
198 100 147
199 259 147
200 109 148
201 170 149
202 78 151
203 200 151
204 70 152
205 31 154
206 120 154
207 226 155
208 82 156
209 140 156
210 158 156
211 138 157
212 137 159
213 171 159
214 240 160
215 2 161
216 13 161
217 113 161
218 255 163
219 141 164
220 201 165
221 175 166
222 60 167
223 232 167
224 84 168
225 124 168
226 170 169
227 58 170
228 190 171
229 187 173
230 36 174
231 46 174
232 107 174
233 116 174
234 269 174
235 3 175
236 14 175
237 158 178
238 249 178
239 21 179
240 95 179
241 213 180
242 11 181
243 76 181
244 179 181
245 224 182
246 28 184
247 236 184
248 51 186
249 60 186
250 119 186
251 148 187
252 218 187
253 140 188
254 266 188
255 30 190
256 76 191
257 163 191
258 94 192
259 103 193
260 188 193
261 228 193
262 152 194
263 193 197
264 246 197
265 252 197
266 1 198
267 73 198
268 86 198
269 125 198
270 7 199
271 206 199
272 207 199
273 44 201
274 55 201
275 158 201
276 30 203
277 25 204
278 44 204
279 231 204
280 260 204
281 120 207
282 175 207
283 185 207
284 228 207
285 265 209
286 68 210
287 166 212
288 191 212
289 15 215
290 109 215
291 82 216
292 130 217
293 97 218
294 37 219
295 147 219
296 238 219
297 243 219
298 219 220
299 68 221
300 113 221
301 171 222
302 23 223
303 130 223
304 243 224
305 6 225
306 86 225
307 106 225
308 193 226
309 224 226
310 186 227
311 145 228
312 160 228
313 14 229
314 258 231
315 270 231
316 97 232
317 47 233
318 155 233
319 58 235
320 210 235
321 119 237
322 130 238
323 67 239
324 220 239
325 80 240
326 152 240
327 56 242
328 30 243
329 254 243
330 140 244
331 230 244
332 92 246
333 117 246
334 220 246
335 50 248
336 145 249
337 194 250
338 184 251
339 71 252
340 175 252
341 250 252
342 226 253
343 15 255
344 36 255
345 120 256
346 83 257
347 104 257
348 170 257
349 208 258
350 99 259
351 162 259
352 9 260
353 82 260
354 152 260
355 253 260
356 21 261
357 267 261
358 44 262
359 16 263
360 141 264
361 210 264
362 220 264
363 9 268
364 175 268
365 79 270
366 50 271
367 267 271
368 196 272
369 239 272
370 113 273
371 68 274
372 127 274
373 187 275
374 243 276
375 140 277
376 89 278
377 108 278
378 219 279
379 229 279
380 150 280
381 160 280
382 32 281
383 178 282
384 11 283
385 200 283
386 156 284
387 30 285
388 201 285
389 58 289
390 23 290
391 130 290
392 67 291
393 100 291
394 257 291
395 3 292
396 237 292
397 46 293
398 221 294
399 246 296
400 181 297
401 28 299
402 178 299
403 200 299
404 266 299
405 73 300
406 266 300
407 39 301
408 108 301
409 109 301
410 115 301
411 137 301
412 215 301
413 259 302
414 188 304
415 190 304
416 167 307
417 133 308
418 143 309
419 126 310
420 94 312
421 238 312
422 60 315
423 14 316
424 85 316
425 41 317
426 73 317
427 221 318
428 245 318
429 6 319
430 78 319
431 118 319
432 183 319
433 67 320
434 152 321
435 126 323
436 6 324
437 156 324
438 55 325
439 113 325
440 208 325
441 137 326
442 248 326
443 46 328
444 266 329
445 17 330
446 177 330
447 218 330
448 149 331
449 83 333
450 193 333
451 231 333
452 24 334
453 31 335
454 223 336
455 66 337
456 90 337
457 102 337
458 26 339
459 166 339
460 77 340
461 258 340
462 268 344
463 63 345
464 140 346
465 198 346
466 30 348
467 113 348
468 220 348
469 130 349
470 133 349
471 238 349
472 5 350
473 80 350
474 179 350
475 200 350
476 150 352
477 97 354
478 223 354
479 253 354
480 181 356
481 246 356
482 16 358
483 103 359
484 30 360
485 40 360
486 58 360
487 169 360
488 200 361
489 180 362
490 266 362
491 100 365
492 64 366
493 187 366
494 146 367
495 80 368
496 159 368
497 161 368
498 220 368
499 1 369
500 103 369
501 115 373
502 210 373
503 248 374
504 259 374
505 131 375
506 35 376
507 122 376
508 56 378
509 210 378
510 238 378
511 15 379
512 50 379
513 85 379
514 182 379
515 94 381
516 266 383
517 44 384
518 74 384
519 80 384
520 191 384
521 130 385
522 169 385
523 258 385
524 177 389
525 210 391
526 13 392
527 160 392
528 209 392
529 102 393
530 30 394
531 67 395
532 227 397
533 4 398
534 35 398
535 118 398
536 123 398
537 205 399
538 250 399
539 60 400
540 68 400
541 131 400
542 141 400
543 166 400
544 212 400
545 230 400
546 245 400
547 71 401
548 12 404
549 240 404
550 251 404
551 27 405
552 92 406
553 183 406
554 38 410
555 266 410
556 127 411
557 83 412
558 152 413
559 192 413
560 7 415
561 55 416
562 42 418
563 107 418
564 114 419
565 150 419
566 105 420
567 230 420
568 13 421
569 56 421
570 146 421
571 174 421
572 185 421
573 194 421
574 241 421
575 164 422
576 9 423
577 141 423
578 96 424
579 43 425
580 25 431
581 201 431
582 230 432
583 257 432
584 132 434
585 263 434
586 33 435
587 119 435
588 86 436
589 178 436
590 64 437
591 129 437
592 231 437
593 216 438
594 32 439
595 239 439
596 11 440
597 46 440
598 52 440
599 73 440
600 140 442
601 145 442
602 259 442
603 119 443
604 207 443
605 162 444
606 215 445
607 106 447
608 245 447
609 123 448
610 180 450
611 30 451
612 61 451
613 77 453
614 151 453
615 200 453
616 222 453
617 99 455
618 182 456
619 83 457
620 265 458
621 112 459
622 127 459
623 264 459
624 8 460
625 255 460
626 25 462
627 58 462
628 105 462
629 200 462
630 141 463
631 165 464
632 197 464
633 153 465
634 66 466
635 242 466
636 135 467
637 218 467
638 12 468
639 174 468
640 9 469
641 79 469
642 188 469
643 239 475
644 80 476
645 48 478
646 140 479
647 221 480
648 32 481
649 99 481
650 186 481
651 133 483
652 30 484
653 154 484
654 164 485
655 57 486
656 249 486
657 96 487
658 250 487
659 27 488
660 70 489
661 108 489
662 174 489
663 237 489
664 198 491
665 10 492
666 123 492
667 207 492
668 210 493
669 120 494
670 224 495
671 40 498
672 10 499
673 187 499
674 208 499
675 76 500
676 214 500
677 262 500
678 29 501
679 48 501
680 63 501
681 90 501
682 262 501
683 10 503
684 112 504
685 56 506
686 135 506
687 246 508
688 30 509
689 155 509
690 67 510
691 86 510
692 90 512
693 171 513
694 226 513
695 127 517
696 233 518
697 2 519
698 82 519
699 121 519
700 154 519
701 160 519
702 208 519
703 231 519
704 1 520
705 40 520
706 58 520
707 103 520
708 200 520
709 28 521
710 143 521
711 252 521
712 260 521
713 95 525
714 253 525
715 230 527
716 198 528
717 243 528
718 42 533
719 109 533
720 117 533
721 130 534
722 76 535
723 188 536
724 216 536
725 14 538
726 142 538
727 167 539
728 233 539
729 263 539
730 180 540
731 180 541
732 64 542
733 96 543
734 15 544
735 39 544
736 52 544
737 107 545
738 9 546
739 72 546
740 143 546
741 193 546
742 208 547
743 68 548
744 247 549
745 47 550
746 183 552
747 22 553
748 138 553
749 157 553
750 167 553
751 228 553
752 213 555
753 252 557
754 118 558
755 121 558
756 207 559
757 84 560
758 70 561
759 83 562
760 50 564
761 30 565
762 157 565
763 171 565
764 215 565
765 50 566
766 141 568
767 260 569
768 94 570
769 8 571
770 169 571
771 251 574
772 38 576
773 130 577
774 132 577
775 240 578
776 76 579
777 114 579
778 12 580
779 105 580
780 184 580
781 199 580
782 229 580
783 231 580
NODE_SCORE_SECTION
1 1
2 1
3 1
4 1
5 1
6 1
7 1
8 1
9 1
10 1
11 1
12 1
13 1
14 1
15 1
16 1
17 1
18 1
19 1
20 1
21 1
22 1
23 1
24 1
25 1
26 1
27 1
28 1
29 1
30 1
31 1
32 1
33 1
34 1
35 1
36 1
37 1
38 1
39 1
40 1
41 1
42 1
43 1
44 1
45 1
46 1
47 1
48 1
49 1
50 1
51 1
52 1
53 1
54 1
55 1
56 1
57 1
58 1
59 1
60 1
61 1
62 1
63 1
64 1
65 1
66 1
67 1
68 1
69 1
70 1
71 1
72 1
73 1
74 1
75 1
76 1
77 1
78 1
79 1
80 1
81 1
82 1
83 1
84 1
85 1
86 1
87 1
88 1
89 1
90 1
91 1
92 1
93 1
94 1
95 1
96 1
97 1
98 1
99 1
100 1
101 1
102 1
103 1
104 1
105 1
106 1
107 1
108 1
109 1
110 1
111 1
112 1
113 1
114 1
115 1
116 1
117 1
118 1
119 1
120 1
121 1
122 1
123 1
124 1
125 1
126 1
127 1
128 1
129 1
130 1
131 1
132 1
133 1
134 1
135 1
136 1
137 1
138 1
139 1
140 1
141 1
142 1
143 1
144 1
145 1
146 1
147 1
148 1
149 1
150 1
151 1
152 1
153 1
154 1
155 1
156 1
157 1
158 1
159 1
160 1
161 1
162 1
163 1
164 1
165 1
166 1
167 1
168 1
169 1
170 1
171 1
172 1
173 1
174 1
175 1
176 1
177 1
178 1
179 1
180 1
181 1
182 1
183 1
184 1
185 1
186 1
187 1
188 1
189 1
190 1
191 1
192 1
193 1
194 1
195 1
196 1
197 1
198 1
199 1
200 1
201 1
202 1
203 1
204 1
205 1
206 1
207 1
208 1
209 1
210 1
211 1
212 1
213 1
214 1
215 1
216 1
217 1
218 1
219 1
220 1
221 1
222 1
223 1
224 1
225 1
226 1
227 1
228 1
229 1
230 1
231 1
232 1
233 1
234 1
235 1
236 1
237 1
238 1
239 1
240 1
241 1
242 1
243 1
244 1
245 1
246 1
247 1
248 1
249 1
250 1
251 1
252 1
253 1
254 1
255 1
256 1
257 1
258 1
259 1
260 1
261 1
262 1
263 1
264 1
265 1
266 1
267 1
268 1
269 1
270 1
271 1
272 1
273 1
274 1
275 1
276 1
277 1
278 1
279 1
280 1
281 1
282 1
283 1
284 1
285 1
286 1
287 1
288 1
289 1
290 1
291 1
292 1
293 1
294 1
295 1
296 1
297 1
298 1
299 1
300 1
301 1
302 1
303 1
304 1
305 1
306 1
307 1
308 1
309 1
310 1
311 1
312 1
313 1
314 1
315 1
316 1
317 1
318 1
319 1
320 1
321 1
322 1
323 1
324 1
325 1
326 1
327 1
328 1
329 1
330 1
331 1
332 1
333 1
334 1
335 1
336 1
337 1
338 1
339 1
340 1
341 1
342 1
343 1
344 1
345 1
346 1
347 1
348 1
349 1
350 1
351 1
352 1
353 1
354 1
355 1
356 1
357 1
358 1
359 1
360 1
361 1
362 1
363 1
364 1
365 1
366 1
367 1
368 1
369 1
370 1
371 1
372 1
373 1
374 1
375 1
376 1
377 1
378 1
379 1
380 1
381 1
382 1
383 1
384 1
385 1
386 1
387 1
388 1
389 1
390 1
391 1
392 1
393 1
394 1
395 1
396 1
397 1
398 1
399 1
400 1
401 1
402 1
403 1
404 1
405 1
406 1
407 1
408 1
409 1
410 1
411 1
412 1
413 1
414 1
415 1
416 1
417 1
418 1
419 1
420 1
421 1
422 1
423 1
424 1
425 1
426 1
427 1
428 1
429 1
430 1
431 1
432 1
433 1
434 1
435 1
436 1
437 1
438 1
439 1
440 1
441 1
442 1
443 1
444 1
445 1
446 1
447 1
448 1
449 1
450 1
451 1
452 1
453 1
454 1
455 1
456 1
457 1
458 1
459 1
460 1
461 1
462 1
463 1
464 1
465 1
466 1
467 1
468 1
469 1
470 1
471 1
472 1
473 1
474 1
475 1
476 1
477 1
478 1
479 1
480 1
481 1
482 1
483 1
484 1
485 1
486 1
487 1
488 1
489 1
490 1
491 1
492 1
493 1
494 1
495 1
496 1
497 1
498 1
499 1
500 1
501 1
502 1
503 1
504 1
505 1
506 1
507 1
508 1
509 1
510 1
511 1
512 1
513 1
514 1
515 1
516 1
517 1
518 1
519 1
520 1
521 1
522 1
523 1
524 1
525 1
526 1
527 1
528 1
529 1
530 1
531 1
532 1
533 1
534 1
535 1
536 1
537 1
538 1
539 1
540 1
541 1
542 1
543 1
544 1
545 1
546 1
547 1
548 1
549 1
550 1
551 1
552 1
553 1
554 1
555 1
556 1
557 1
558 1
559 1
560 1
561 1
562 1
563 1
564 1
565 1
566 1
567 1
568 1
569 1
570 1
571 1
572 1
573 1
574 1
575 1
576 1
577 1
578 1
579 1
580 1
581 1
582 1
583 1
584 1
585 1
586 1
587 1
588 1
589 1
590 1
591 1
592 1
593 1
594 1
595 1
596 1
597 1
598 1
599 1
600 1
601 1
602 1
603 1
604 1
605 1
606 1
607 1
608 1
609 1
610 1
611 1
612 1
613 1
614 1
615 1
616 1
617 1
618 1
619 1
620 1
621 1
622 1
623 1
624 1
625 1
626 1
627 1
628 1
629 1
630 1
631 1
632 1
633 1
634 1
635 1
636 1
637 1
638 1
639 1
640 1
641 1
642 1
643 1
644 1
645 1
646 1
647 1
648 1
649 1
650 1
651 1
652 1
653 1
654 1
655 1
656 1
657 1
658 1
659 1
660 1
661 1
662 1
663 1
664 1
665 1
666 1
667 1
668 1
669 1
670 1
671 1
672 1
673 1
674 1
675 1
676 1
677 1
678 1
679 1
680 1
681 1
682 1
683 1
684 1
685 1
686 1
687 1
688 1
689 1
690 1
691 1
692 1
693 1
694 1
695 1
696 1
697 1
698 1
699 1
700 1
701 1
702 1
703 1
704 1
705 1
706 1
707 1
708 1
709 1
710 1
711 1
712 1
713 1
714 1
715 1
716 1
717 1
718 1
719 1
720 1
721 1
722 1
723 1
724 1
725 1
726 1
727 1
728 1
729 1
730 1
731 1
732 1
733 1
734 1
735 1
736 1
737 1
738 1
739 1
740 1
741 1
742 1
743 1
744 1
745 1
746 1
747 1
748 1
749 1
750 1
751 1
752 1
753 1
754 1
755 1
756 1
757 1
758 1
759 1
760 1
761 1
762 1
763 1
764 1
765 1
766 1
767 1
768 1
769 1
770 1
771 1
772 1
773 1
774 1
775 1
776 1
777 1
778 1
779 1
780 1
781 1
782 1
783 1
DEPOT_SECTION
1
-1
EOF
