single_objective/SL-DABL/OP/problems/op/OPLib-master/solutions/ea4op/gen1/rat783-gen1-50.sol
NAME : rat783
TYPE : OP
DIMENSION : 783
COST_LIMIT : 4403
ROUTE_NODES : 422
ROUTE_SCORE : 422
ROUTE_COST : 4403
NODE_SEQUENCE_SECTION
1
17
23
2
7
18
12
9
10
3
5
19
30
8
20
36
59
61
50
35
22
14
32
16
21
26
27
24
28
34
43
66
75
87
84
79
101
106
109
114
122
142
148
168
166
174
178
192
189
191
197
188
183
201
213
226
221
228
229
244
260
263
271
272
252
245
261
279
284
296
297
304
331
324
334
342
369
374
396
399
394
404
406
413
428
442
461
479
481
503
504
516
523
538
550
546
549
545
532
544
537
528
525
520
514
493
489
480
474
487
497
496
476
464
470
469
467
483
491
500
515
513
519
518
531
540
547
557
552
566
563
564
587
603
609
591
584
577
570
565
558
575
571
572
573
581
604
615
629
632
642
650
664
667
668
674
676
670
663
656
658
677
682
687
711
714
717
696
703
715
728
744
753
767
771
775
783
782
764
756
752
742
724
702
708
716
723
730
731
746
763
770
762
766
774
773
777
779
768
759
757
739
743
732
736
745
760
765
761
747
734
738
725
704
697
683
672
665
659
652
648
678
671
679
685
680
675
691
692
681
657
649
661
669
666
651
646
636
622
621
628
617
619
613
612
598
597
586
594
611
626
638
640
624
596
576
568
560
548
533
526
530
534
517
512
508
492
486
485
484
466
458
453
452
445
436
429
423
401
390
387
382
397
407
425
443
438
422
433
426
430
424
420
408
409
410
419
417
411
418
434
437
416
402
400
414
415
403
388
385
368
361
349
337
338
340
348
351
354
336
330
326
318
312
301
287
275
262
251
219
212
211
209
206
200
198
179
176
163
169
157
140
128
108
105
102
99
85
71
64
77
74
63
58
53
47
65
83
94
107
111
133
137
143
152
151
156
162
184
204
202
208
224
240
232
233
250
269
281
290
300
307
316
332
346
353
339
323
327
319
299
286
274
278
273
276
277
255
246
239
236
242
235
215
186
180
172
160
155
147
139
123
117
110
97
80
70
57
45
37
25
15
-1
DEPOT_SECTION
1
-1
EOF
